0 47 47
1 46 52
2 44 55
3 43 55
4 53 58
5 57 57
6 52 56
7 53 54
8 56 56
9 51 54
10 53 53
11 50 52
12 51 51
13 46 50
14 49 49
15 40 49
16 48 49
17 48 50
18 43 49
19 45 47
20 44 45
21 34 41
22 44 44
23 41 44
24 42 43
25 40 42
26 22 42
27 41 41
28 36 40
29 35 37
30 30 35
31 30 34
32 33 34
33 36 36
34 34 35
35 29 33
36 27 33
37 32 32
38 26 30
39 20 31
40 18 30
41 28 28
42 21 25
43 22 25
44 11 23
45 15 20
46 18 19
47 11 16
48 17 17
49 15 15
50 14 14
51 14 14
52 7 12
53 11 11
54 2 12
55 12 12
56 10 11
57 1 10
58 8 8
59 3 4
60 2 3
61 2 2
62 2 2
63 2 2
64 2 2
65 1 1

